results_rootrelaxation/bin018_060_040.srr.sol
solution status: optimal solution found
objective value:                                    0
_var2696_                         0.00472538489457147 	(obj:0)
_var2699_                          0.0399782220917199 	(obj:0)
_var2700_                           0.130184165892671 	(obj:0)
_var2737_                           0.307873334722292 	(obj:0)
_var2738_                           0.532368730808287 	(obj:0)
_var2760_                           0.114338902572148 	(obj:0)
_var2762_                           0.197763259826201 	(obj:0)
_var2790_                           0.095970959709978 	(obj:0)
_var2792_                           0.061763390149195 	(obj:0)
_var2794_                           0.108864839673745 	(obj:0)
_var2801_                           0.100605192902917 	(obj:0)
_var2804_                           0.138760643264551 	(obj:0)
_var2820_                           0.063380964165582 	(obj:0)
_var2840_                          0.0620905347661881 	(obj:0)
_var2841_                          0.0715859232151655 	(obj:0)
_var2842_                          0.0536410812354937 	(obj:0)
_var2843_                          0.0960130123825273 	(obj:0)
_var2849_                          0.0246199234236942 	(obj:0)
_var2851_                           0.179949445977849 	(obj:0)
_var2853_                          0.0516610728043133 	(obj:0)
_var2854_                           0.373112924155027 	(obj:0)
_var2857_                           0.139745808129025 	(obj:0)
_var2862_                           0.119603005198534 	(obj:0)
_var2864_                           0.188254131523228 	(obj:0)
_var2877_                           0.123547954524275 	(obj:0)
_var2879_                          0.0874152366013811 	(obj:0)
_var2883_                          0.0320317563888289 	(obj:0)
_var2884_                          0.0155705930375356 	(obj:0)
_var2893_                          0.0954823336731069 	(obj:0)
_var2895_                           0.152311685140646 	(obj:0)
_var2896_                           0.123524853661147 	(obj:0)
_var2899_                           0.331240947092146 	(obj:0)
_var2900_                           0.102755020903404 	(obj:0)
_var2902_                           0.129347053756218 	(obj:0)
_var2903_                           0.133704371380827 	(obj:0)
_var2905_                            0.38006852850962 	(obj:0)
_var2912_                            0.48830291349468 	(obj:0)
_var2926_                          0.0222305312229288 	(obj:0)
_var2932_                           0.158030202977427 	(obj:0)
_var2933_                           0.138800162654363 	(obj:0)
_var2934_                           0.291673139370554 	(obj:0)
_var2935_                           0.291661580901391 	(obj:0)
_var2936_                            0.28773457086486 	(obj:0)
_var2937_                           0.065562290570444 	(obj:0)
_var2938_                          0.0221053973248787 	(obj:0)
_var2942_                          0.0341899605544681 	(obj:0)
_var2944_                          0.0827078086497505 	(obj:0)
_var2947_                           0.165752917282735 	(obj:0)
_var2949_                           0.147180857325363 	(obj:0)
_var2950_                          0.0611368500064279 	(obj:0)
_var2951_                          0.0578375990538799 	(obj:0)
_var2957_                           0.464621665042715 	(obj:0)
_var2961_                           0.286671715748871 	(obj:0)
_var2967_                          0.0336125502041021 	(obj:0)
_var2968_                          0.0821415798500473 	(obj:0)
_var2969_                          0.0216614413467069 	(obj:0)
_var2971_                          0.0663569920386392 	(obj:0)
_var2974_                          0.0830350192155756 	(obj:0)
_var2979_                            0.15656817368634 	(obj:0)
_var2982_                          0.0301482944217903 	(obj:0)
_var2985_                           0.064007214623548 	(obj:0)
_var2992_                           0.138078061286923 	(obj:0)
_var2993_                          0.0230003588184642 	(obj:0)
_var2994_                          0.0760704646601906 	(obj:0)
_var2995_                          0.0488021665775585 	(obj:0)
_var2997_                           0.192212770598587 	(obj:0)
_var2998_                          0.0957832245216959 	(obj:0)
_var3002_                          0.0350114921747832 	(obj:0)
_var3005_                           0.010453218754705 	(obj:0)
_var3006_                          0.0763798646289373 	(obj:0)
_var3008_                         0.000833427660528865 	(obj:0)
_var3010_                          0.0822597157055957 	(obj:0)
_var3011_                           0.113342096561346 	(obj:0)
_var3012_                          0.0921196776757085 	(obj:0)
_var3015_                         0.00678212407111522 	(obj:0)
_var3016_                           0.384632885634036 	(obj:0)
_var3018_                          0.0646593371332136 	(obj:0)
_var3020_                           0.116919251434748 	(obj:0)
_var3022_                           0.131440484483467 	(obj:0)
_var3023_                           0.467607960361343 	(obj:0)
_var3024_                          0.0486503885383172 	(obj:0)
_var3027_                          0.0333834402082061 	(obj:0)
_var3030_                           0.200348408947373 	(obj:0)
_var3033_                           0.301324965538194 	(obj:0)
_var3036_                          0.0632910198798853 	(obj:0)
_var3039_                          0.0769264800178138 	(obj:0)
_var3044_                           0.020312465529151 	(obj:0)
_var3045_                           0.416945304556223 	(obj:0)
_var3048_                          0.0422320146386401 	(obj:0)
_var3051_                          0.0765951208751696 	(obj:0)
_var3052_                          0.0370267254151256 	(obj:0)
_var3053_                           0.103376535943177 	(obj:0)
_var3054_                           0.132428496438733 	(obj:0)
_var3055_                           0.181045287105907 	(obj:0)
_var3056_                          0.0711174516709014 	(obj:0)
_var3057_                          0.0193549788528819 	(obj:0)
_var3061_                          0.0726489854806158 	(obj:0)
_var3068_                           0.135904038834973 	(obj:0)
_var3069_                            0.09321656497918 	(obj:0)
_var3071_                           0.191686069481946 	(obj:0)
_var3072_                          0.0786696751103106 	(obj:0)
_var3073_                          0.0518570729430229 	(obj:0)
_var3074_                           0.168186141124715 	(obj:0)
_var3076_                          0.0231925581085111 	(obj:0)
_var3077_                           0.239063011283048 	(obj:0)
_var3080_                           0.184011634918596 	(obj:0)
_var3081_                          0.0841739176502838 	(obj:0)
_var3083_                          0.0493426558516593 	(obj:0)
_var3084_                           0.102167725263772 	(obj:0)
_var3085_                         0.00192559115346494 	(obj:0)
_var3086_                          0.0720849467619964 	(obj:0)
_var3087_                          0.0203810191776715 	(obj:0)
_var3088_                           0.128470316183776 	(obj:0)
_var3089_                           0.044819643891874 	(obj:0)
_var3090_                           0.171008211945441 	(obj:0)
_var3091_                          0.0483853738008257 	(obj:0)
_var3093_                           0.110817965481316 	(obj:0)
_var3094_                            0.16713299901587 	(obj:0)
_var3096_                           0.162087808879853 	(obj:0)
_var3097_                          0.0341896731064448 	(obj:0)
_var3098_                           0.197208039718995 	(obj:0)
_var3100_                           0.128592240565836 	(obj:0)
_var3102_                         0.00598625985540618 	(obj:0)
_var3103_                           0.100992053157908 	(obj:0)
_var3106_                          0.0605858348244168 	(obj:0)
_var3109_                          0.0377916095615604 	(obj:0)
_var3110_                          0.0726386758375829 	(obj:0)
_var3111_                          0.0211572139077939 	(obj:0)
_var3113_                          0.0417669111943151 	(obj:0)
_var3115_                           0.011411925661918 	(obj:0)
_var3116_                          0.0279540809345445 	(obj:0)
_var3119_                          0.0883605376287678 	(obj:0)
_var3120_                          0.0672298625955354 	(obj:0)
_var3121_                           0.118148314315955 	(obj:0)
_var3122_                          0.0557837237545261 	(obj:0)
_var3123_                          0.0367964978220967 	(obj:0)
_var3125_                          0.0161350452094323 	(obj:0)
_var3126_                          0.0969955850698938 	(obj:0)
_var3127_                          0.0623585922345125 	(obj:0)
_var3128_                           0.126695379784074 	(obj:0)
_var3131_                           0.122373908414471 	(obj:0)
_var3132_                          0.0689651772790938 	(obj:0)
_var3133_                          0.0969865351929022 	(obj:0)
_var3135_                           0.163684567688048 	(obj:0)
_var3139_                          0.0458185274206372 	(obj:0)
_var3140_                         0.00105199064646699 	(obj:0)
_var3141_                          0.0573230820502912 	(obj:0)
_var3144_                          0.0437414531547063 	(obj:0)
_var3152_                          0.0180415614541599 	(obj:0)
_var3158_                          0.0236669291498102 	(obj:0)
